proyfinal/src/viki/013/andrea/andrea-localstore/experimentInOfficeAgust.take6/worker_9/1f4d76b6-ac43-4132-bb93-e22b59054744.als.cnf.out
Reading from standard input... Use '--help' for help.
============================[ Problem Statistics ]=============================
|                                                                             |
|  Number of variables:         87638                                         |
|  Number of clauses:          161767                                         |
|  Parse time:                   0.04 s                                       |
|                                                                             |
============================[ Search Statistics ]==============================
| Conflicts |          ORIGINAL         |          LEARNT          | Progress |
|           |    Vars  Clauses Literals |    Limit  Clauses Lit/Cl |          |
===============================================================================
|       100 |   62611   106022   265002 |    38874      100     13 | 28.557 % |
|       250 |   62611   106022   265002 |    42762      250     21 | 28.557 % |
|       475 |   62611   106022   265002 |    47038      475     43 | 28.557 % |
|       812 |   62611   106022   265002 |    51742      812     65 | 28.557 % |
|      1318 |   49151    68364   172618 |    56916     1232     75 | 43.916 % |
|      2077 |   49138    68304   172474 |    62608     1990     64 | 43.931 % |
|      3216 |   48563    65897   166717 |    68868     3109     56 | 44.587 % |
|      4924 |   48313    64822   164143 |    75755     4217     55 | 44.872 % |
|      7486 |   48159    64575   163559 |    83331     6770     57 | 45.048 % |
===============================================================================
restarts              : 46
conflicts             : 10572          (7726 /sec)
decisions             : 30748          (0.00 % random) (22471 /sec)
propagations          : 16604014       (12134315 /sec)
conflict literals     : 558455         (43.25 % deleted)
Memory used           : 27.20 MB
CPU time              : 1.36835 s

UNSATISFIABLE
